ISTART=0  ICHARG=2  ENCUT=520  PREC=Accurate
EDIFF=1E-6
ISMEAR=0  SIGMA=0.05          # 稳妥的半导体设置
LASPH=.TRUE.
LSORBIT=.TRUE.  LNONCOLLINEAR=.TRUE.
ISYM=0
SAXIS    = 0 0 1
MAGMOM = 40*0 40*0 40*0
LREAL=Auto
LWAVE=.FALSE.  LCHARG=.FALSE.
