K-Spacing Value to Generate K-Mesh: 0.040
0
Gamma
   2   2   2
0.0  0.0  0.0
