Generated by VASPKIT code               
   1.0000000000000000     
    12.6113622587350296    0.0000000000000000    0.0000000000000000
     0.0000000000000008   12.6113622587350296    0.0000000000000000
     0.0000000000000008    0.0000000000000008   12.6113622587350296
  Cs              I               Pb            
     8    24     8
Direct
     0.2500000000000000    0.2500000000000000    0.2500000000000000
     0.2500000000000000    0.2500000000000000    0.7500000000000000
     0.2500000000000000    0.7500000000000000    0.2500000000000000
     0.2500000000000000    0.7500000000000000    0.7500000000000000
     0.7500000000000000    0.2500000000000000    0.2500000000000000
     0.7500000000000000    0.2500000000000000    0.7500000000000000
     0.7500000000000000    0.7500000000000000    0.2500000000000000
     0.7500000000000000    0.7500000000000000    0.7500000000000000
     0.0000000000000000    0.0000000000000000    0.2500000000000000
     0.0000000000000000    0.0000000000000000    0.7500000000000000
     0.0000000000000000    0.5000000000000000    0.2500000000000000
     0.0000000000000000    0.5000000000000000    0.7500000000000000
     0.5000000000000000    0.0000000000000000    0.2500000000000000
     0.5000000000000000    0.0000000000000000    0.7500000000000000
     0.5000000000000000    0.5000000000000000    0.2500000000000000
     0.5000000000000000    0.5000000000000000    0.7500000000000000
     0.0000000000000000    0.2500000000000000    0.0000000000000000
     0.0000000000000000    0.2500000000000000    0.5000000000000000
     0.0000000000000000    0.7500000000000000    0.0000000000000000
     0.0000000000000000    0.7500000000000000    0.5000000000000000
     0.5000000000000000    0.2500000000000000    0.0000000000000000
     0.5000000000000000    0.2500000000000000    0.5000000000000000
     0.5000000000000000    0.7500000000000000    0.0000000000000000
     0.5000000000000000    0.7500000000000000    0.5000000000000000
     0.2500000000000000    0.0000000000000000    0.0000000000000000
     0.2500000000000000    0.0000000000000000    0.5000000000000000
     0.2500000000000000    0.5000000000000000    0.0000000000000000
     0.2500000000000000    0.5000000000000000    0.5000000000000000
     0.7500000000000000    0.0000000000000000    0.0000000000000000
     0.7500000000000000    0.0000000000000000    0.5000000000000000
     0.7500000000000000    0.5000000000000000    0.0000000000000000
     0.7500000000000000    0.5000000000000000    0.5000000000000000
     0.0000000000000000    0.0000000000000000    0.0000000000000000
     0.0000000000000000    0.0000000000000000    0.5000000000000000
     0.0000000000000000    0.5000000000000000    0.0000000000000000
     0.0000000000000000    0.5000000000000000    0.5000000000000000
     0.5000000000000000    0.0000000000000000    0.0000000000000000
     0.5000000000000000    0.0000000000000000    0.5000000000000000
     0.5000000000000000    0.5000000000000000    0.0000000000000000
     0.5000000000000000    0.5000000000000000    0.5000000000000000
